proyfinal/src/viki/013/experimentInOfficeAgust.take6.output/949a65ab-dc66-44a3-9b27-cd0fbde8c971.als.out
Reading from standard input... Use '--help' for help.
============================[ Problem Statistics ]=============================
|                                                                             |
|  Number of variables:         87638                                         |
|  Number of clauses:          161767                                         |
|  Parse time:                   0.04 s                                       |
|                                                                             |
============================[ Search Statistics ]==============================
| Conflicts |          ORIGINAL         |          LEARNT          | Progress |
|           |    Vars  Clauses Literals |    Limit  Clauses Lit/Cl |          |
===============================================================================
|       100 |   65248   115600   288254 |    42386      100     25 | 25.548 % |
|       250 |   65248   115600   288254 |    46625      250     44 | 25.548 % |
|       475 |   65248   115600   288254 |    51287      475     46 | 25.548 % |
|       812 |   65248   115600   288254 |    56416      812     45 | 25.548 % |
|      1318 |   65248   115600   288254 |    62058     1318     50 | 25.548 % |
|      2077 |   65247   115597   288248 |    68264     2075     55 | 25.549 % |
|      3216 |   65163   115219   287382 |    75090     3207     70 | 25.645 % |
|      4924 |   65163   115219   287382 |    82599     4915     74 | 25.645 % |
|      7486 |   65163   115219   287382 |    90859     7477     81 | 25.645 % |
|     11330 |   65163   115219   287382 |    99945    11321     83 | 25.645 % |
|     17096 |   65127   115077   287049 |   109940    17085     83 | 25.686 % |
===============================================================================
restarts              : 78
conflicts             : 22285          (7810 /sec)
decisions             : 78067          (0.00 % random) (27361 /sec)
propagations          : 29397377       (10303095 /sec)
conflict literals     : 1967496        (51.33 % deleted)
Memory used           : 38.88 MB
CPU time              : 2.85326 s

INDETERMINATE
